% Auto-generated by scripts/generate_dzn.py
% problem_type   = regex
% instance       = regex_21
% source_json    = instances_json/1_medium_blowup/regex_21.json
% blowup         = 4.470588235294118
% representation = DFA

mode = 0;

var_count = 18;
n_constraints = 2;
Q = 68;
S = 2;
q0 = [1, 1];
F = [{43, 44, 45, 46, 47, 48, 49, 50, 51, 52, 53, 54, 55, 56, 57, 58, 59, 60, 61, 62, 63, 64, 65, 66, 67, 68}, {7}];
weights = [3, 4, 9, 1, 2, 1, 3, 5, 10, 7, 8, 4, 5, 1, 7, 2, 10, 8];
d_dfa = array3d(1..2, 1..68, 1..2, [
  % k = 1
    2, 1,
    2, 3,
    4, 1,
    6, 5,
    8, 7,
    10, 9,
    12, 11,
    14, 13,
    15, 11,
    12, 16,
    18, 17,
    18, 19,
    21, 20,
    23, 22,
    25, 24,
    26, 17,
    28, 27,
    28, 29,
    30, 27,
    32, 31,
    34, 33,
    35, 31,
    32, 36,
    38, 37,
    40, 39,
    42, 41,
    44, 43,
    44, 45,
    46, 43,
    48, 47,
    50, 49,
    50, 51,
    53, 52,
    55, 54,
    57, 56,
    58, 49,
    60, 59,
    62, 61,
    63, 59,
    60, 64,
    66, 65,
    68, 67,
    2, 1,
    2, 3,
    4, 1,
    6, 5,
    8, 7,
    10, 9,
    28, 27,
    28, 29,
    30, 27,
    32, 31,
    34, 33,
    35, 31,
    32, 36,
    38, 37,
    40, 39,
    42, 41,
    18, 17,
    18, 19,
    21, 20,
    23, 22,
    25, 24,
    26, 17,
    12, 11,
    14, 13,
    15, 11,
    12, 16,

  % k = 2
    1, 2,
    2, 3,
    3, 4,
    4, 5,
    5, 6,
    6, 7,
    7, 8,
    8, 8,
    0, 0,
    0, 0,
    0, 0,
    0, 0,
    0, 0,
    0, 0,
    0, 0,
    0, 0,
    0, 0,
    0, 0,
    0, 0,
    0, 0,
    0, 0,
    0, 0,
    0, 0,
    0, 0,
    0, 0,
    0, 0,
    0, 0,
    0, 0,
    0, 0,
    0, 0,
    0, 0,
    0, 0,
    0, 0,
    0, 0,
    0, 0,
    0, 0,
    0, 0,
    0, 0,
    0, 0,
    0, 0,
    0, 0,
    0, 0,
    0, 0,
    0, 0,
    0, 0,
    0, 0,
    0, 0,
    0, 0,
    0, 0,
    0, 0,
    0, 0,
    0, 0,
    0, 0,
    0, 0,
    0, 0,
    0, 0,
    0, 0,
    0, 0,
    0, 0,
    0, 0,
    0, 0,
    0, 0,
    0, 0,
    0, 0,
    0, 0,
    0, 0,
    0, 0,
    0, 0
]);
d_nfa = array3d(1..2, 1..68, 1..2, [
  % k = 1
    {}, {},
    {}, {},
    {}, {},
    {}, {},
    {}, {},
    {}, {},
    {}, {},
    {}, {},
    {}, {},
    {}, {},
    {}, {},
    {}, {},
    {}, {},
    {}, {},
    {}, {},
    {}, {},
    {}, {},
    {}, {},
    {}, {},
    {}, {},
    {}, {},
    {}, {},
    {}, {},
    {}, {},
    {}, {},
    {}, {},
    {}, {},
    {}, {},
    {}, {},
    {}, {},
    {}, {},
    {}, {},
    {}, {},
    {}, {},
    {}, {},
    {}, {},
    {}, {},
    {}, {},
    {}, {},
    {}, {},
    {}, {},
    {}, {},
    {}, {},
    {}, {},
    {}, {},
    {}, {},
    {}, {},
    {}, {},
    {}, {},
    {}, {},
    {}, {},
    {}, {},
    {}, {},
    {}, {},
    {}, {},
    {}, {},
    {}, {},
    {}, {},
    {}, {},
    {}, {},
    {}, {},
    {}, {},
    {}, {},
    {}, {},
    {}, {},
    {}, {},
    {}, {},
    {}, {},

  % k = 2
    {}, {},
    {}, {},
    {}, {},
    {}, {},
    {}, {},
    {}, {},
    {}, {},
    {}, {},
    {}, {},
    {}, {},
    {}, {},
    {}, {},
    {}, {},
    {}, {},
    {}, {},
    {}, {},
    {}, {},
    {}, {},
    {}, {},
    {}, {},
    {}, {},
    {}, {},
    {}, {},
    {}, {},
    {}, {},
    {}, {},
    {}, {},
    {}, {},
    {}, {},
    {}, {},
    {}, {},
    {}, {},
    {}, {},
    {}, {},
    {}, {},
    {}, {},
    {}, {},
    {}, {},
    {}, {},
    {}, {},
    {}, {},
    {}, {},
    {}, {},
    {}, {},
    {}, {},
    {}, {},
    {}, {},
    {}, {},
    {}, {},
    {}, {},
    {}, {},
    {}, {},
    {}, {},
    {}, {},
    {}, {},
    {}, {},
    {}, {},
    {}, {},
    {}, {},
    {}, {},
    {}, {},
    {}, {},
    {}, {},
    {}, {},
    {}, {},
    {}, {},
    {}, {},
    {}, {}
]);
